NAME 
ROWS
 N  OBJ
 L  R0      
 E  R1      
 E  R2      
 E  R3      
 E  R4      
 E  R5      
COLUMNS
    MARKER    'MARKER'                 'INTORG'
    I0(3)     OBJ       -72
    I0(3)     R0        194
    I0(3)     R1        13
    I0(3)     R5        1
    I1(4)     OBJ       -6
    I1(4)     R0        -137
    I1(4)     R1        2
    I1(4)     R2        14
    I1(4)     R5        1
    MARKER    'MARKER'                 'INTEND'
    C2(5)     OBJ       -10
    C2(5)     R0        2
    C2(5)     R1        10
    C2(5)     R2        4
    C2(5)     R3        9
    C2(5)     R4        7
    C3(4)     OBJ       -1
    C3(4)     R0        -10
    C3(4)     R1        1
    C3(4)     R2        12
    C3(4)     R3        8
    C4(4)     OBJ       9
    C4(4)     R0        -1
    C4(4)     R1        14
    C4(4)     R2        14
    C4(4)     R4        18
    C5(1)     R1        1
    C6(1)     R2        1
    C7(1)     R3        1
    C8(1)     R4        1
    C9(1)     R5        1
RHS
    RHS1      R0        1.1333333333333334e+01
    RHS1      R1        67
    RHS1      R2        55
    RHS1      R3        51
    RHS1      R4        54
BOUNDS
 UP BND1      I0(3)     2
 UP BND1      I1(4)     2
ENDATA
